SAT
-1 -100 -99 -98 -97 -96 -82 -95 -94 -93 32 -92 -27 8 28 33 -42 3 48 -91 -55 -90 89 46 78 63 -58 -71 -83 43 -38 37 14 10 81 -40 13 59 51 16 4 7 77 79 57 -53 31 -49 -52 -73 21 -61 69 84 80 29 72 -67 -68 25 65 -23 -2 -19 -35 6 39 5 26 24 88 -50 9 70 15 -44 -56 22 30 -34 47 17 -75 74 -60 87 85 -64 54 12 -45 -86 -18 -20 -66 -11 -41 -36 -62 -76 0
